(set-logic ALL)
(declare-fun seed0_key2 () String)
(declare-fun seed0_value2 () String)
(assert (and (or (and (and (and (and (and (and (and (and (and (and (and (and (and (and (and (and (and (and (and (and (and (not (= (ite (= (str.at (str.substr seed0_value2 1 (- (str.len seed0_value2) 1)) 0) "\u{d}") 1 0) 0)) (= (ite (= (str.at (str.substr seed0_value2 1 (- (str.len seed0_value2) 1)) 0) "\u{a}") 1 0) 0)) (= (ite (= (str.at (str.substr seed0_value2 1 (- (str.len seed0_value2) 1)) 0) "\u{9}") 1 0) 0)) (= (ite (= (str.at (str.substr seed0_value2 1 (- (str.len seed0_value2) 1)) 0) " ") 1 0) 0)) (= (ite (= (str.len (str.substr seed0_value2 1 (- (str.len seed0_value2) 1))) 0) 1 0) 0)) (not (= (ite (= (str.at seed0_value2 0) " ") 1 0) 0))) (= (ite (= (str.len seed0_value2) 0) 1 0) 0)) (not (= (ite (= (str.indexof seed0_value2 "=" 0) (- 1)) 1 0) 0))) (= (ite (not (= (str.indexof seed0_value2 "=" 0) (- 1))) 1 0) 0)) (= (ite (str.contains seed0_value2 ",") 1 0) 0)) (= (ite (= (str.len seed0_value2) 0) 1 0) 0)) (not (= (ite (= seed0_key2 "cache-control") 1 0) 0))) (not (= (ite (= seed0_key2 "cache-control") 1 0) 0))) (>= 1 0)) (>= (- (str.len seed0_value2) 1) 0)) (>= 1 0)) (>= (- (str.len seed0_value2) 1) 0)) (>= 1 0)) (>= (- (str.len seed0_value2) 1) 0)) (>= 1 0)) (>= (- (str.len seed0_value2) 1) 0)) (>= 1 0)) (and (str.suffixof (str.++ seed0_value2 "gyAoiBYOC4Mb3u") (str.++ seed0_value2 "H8kBSzlKDQh4VE")) (str.suffixof (str.++ seed0_value2 "8hDj2") (str.++ seed0_key2 "JR")))) (or (>= (- (str.len seed0_value2) 1) 0) (and (str.<= (str.++ seed0_key2 "qQj5n8XVc3SDmPyKvktG") (str.++ seed0_key2 "L8NAZgBvSQG2TlHjUD9")) (str.<= (str.++ seed0_key2 "wfvCElh") (str.++ seed0_key2 ""))))))
(check-sat)
(exit)